networks/zoo_114_1916/zoo_114_1916-lower.txt
Number of groups: 54
Flow 1: {1 32 0} {32 3 0} {3 60 0} 
Flow 2: {52 5 0} {5 62 0} 
Flow 2: {32 14 0} {14 52 0} Flow 3: {52 6 0} {6 63 0} 
Flow 4: {52 7 0} {7 64 0} 
Flow 5: {5 8 0} {8 65 0} 
Flow 6: {22 9 0} {9 66 0} 
Flow 6: {43 10 0} {10 21 0} {21 22 0} {14 43 0} Flow 7: {10 67 0} 
Flow 8: {27 13 0} {13 70 0} 
Flow 8: {14 27 0} Flow 9: {14 71 0} 
Flow 10: {32 15 0} {15 72 0} 
Flow 11: {32 31 0} {31 16 0} {16 73 0} 
Flow 12: {31 17 0} {17 74 0} 
Flow 13: {14 46 0} {46 18 0} {18 75 0} 
Flow 14: {21 78 0} 
Flow 15: {22 79 0} 
Flow 16: {34 24 0} {24 81 0} 
Flow 16: {32 34 0} Flow 17: {52 26 0} {26 83 0} 
Flow 18: {27 84 0} 
Flow 19: {27 28 0} {28 85 0} 
Flow 20: {31 29 0} {29 86 0} 
Flow 21: {31 30 0} {30 87 0} 
Flow 22: {31 88 0} 
Flow 23: {32 89 0} 
Flow 24: {15 33 0} {33 90 0} 
Flow 25: {34 91 0} 
Flow 26: {34 35 0} {35 92 0} 
Flow 27: {34 36 0} {36 93 0} 
Flow 28: {34 37 0} {37 94 0} 
Flow 29: {18 40 0} {40 97 0} 
Flow 30: {52 41 0} {41 98 0} 
Flow 31: {10 42 0} {42 99 0} 
Flow 32: {43 100 0} 
Flow 33: {46 45 0} {45 102 0} 
Flow 34: {46 103 0} 
Flow 35: {34 48 0} {48 105 0} 
Flow 36: {32 49 0} {49 106 0} 
Flow 37: {37 51 0} {51 108 0} 
Flow 38: {52 109 0} 
Flow 39: {32 53 0} {53 110 0} 
Flow 40: {14 54 0} {54 111 0} 
Flow 41: {52 56 0} {56 113 0} 
Flow 42: {32 1 0} {1 58 0} 
Flow 42: {2 5 0} {5 52 0} {52 14 0} {14 32 0} Flow 48: {5 10 0} Flow 52: {52 34 0} {34 15 0} Flow 53: {14 31 0} Flow 55: {52 18 0} Flow 74: {10 43 0} Flow 81: {34 53 0} Flow 84: {3 32 0} Flow 85: {34 4 0} {4 61 0} 
Flow 101: {34 25 0} {25 82 0} 
Flow 114: {18 38 0} {38 95 0} 
Flow 119: {46 44 0} {44 101 0} 
Flow 128: {15 55 0} {55 112 0} 
Flow 130: {4 34 0} {34 32 0} Flow 132: {34 52 0} Flow 136: {52 10 0} Flow 142: {53 17 0} Flow 161: {7 42 0} Flow 173: {36 56 0} Flow 218: {6 52 0} Flow 219: {5 2 0} {2 59 0} 
Flow 227: {10 11 0} {11 68 0} 
Flow 228: {21 20 0} {20 12 0} {12 69 0} 
Flow 235: {21 19 0} {19 76 0} 
Flow 260: {46 47 0} {47 104 0} 
Flow 269: {43 57 0} {57 114 0} 
Flow 270: {7 52 0} Flow 274: {42 10 0} Flow 297: {8 5 0} Flow 298: {9 22 0} {22 21 0} {21 10 0} {10 52 0} Flow 300: {10 5 0} Flow 306: {21 18 0} Flow 321: {10 41 0} Flow 322: {18 46 0} Flow 334: {42 7 0} Flow 380: {11 10 0} Flow 403: {12 20 0} {20 21 0} Flow 427: {13 27 0} {27 14 0} Flow 446: {27 56 0} {56 36 0} Flow 447: {56 37 0} Flow 483: {15 32 0} Flow 485: {15 34 0} Flow 514: {16 31 0} {31 32 0} Flow 516: {31 14 0} Flow 532: {17 53 0} {53 35 0} Flow 542: {53 32 0} Flow 544: {53 34 0} Flow 548: {17 31 0} Flow 572: {18 52 0} Flow 580: {18 21 0} Flow 624: {19 21 0} Flow 780: {23 21 0} Flow 804: {24 34 0} Flow 849: {25 34 0} Flow 896: {26 52 0} Flow 960: {28 27 0} Flow 988: {29 31 0} Flow 1097: {15 50 0} {50 107 0} 
Flow 1105: {33 15 0} Flow 1192: {35 34 0} Flow 1205: {35 53 0} Flow 1238: {36 34 0} Flow 1242: {37 34 0} Flow 1250: {37 56 0} {56 27 0} Flow 1283: {38 18 0} Flow 1327: {39 46 0} {46 14 0} Flow 1351: {40 18 0} Flow 1358: {41 52 0} Flow 1361: {41 10 0} Flow 1446: {43 14 0} Flow 1491: {44 46 0} Flow 1505: {45 46 0} Flow 1554: {47 46 0} Flow 1579: {48 34 0} Flow 1610: {49 32 0} Flow 1661: {50 15 0} Flow 1684: {51 37 0} Flow 1814: {54 14 0} Flow 1829: {55 15 0} Flow 1845: {56 52 0} Flow 1893: {57 43 0} Time taken running everything: 0 seconds
