networks/zoo_114_1916/zoo_114_1916-lower.sol
<?xml version = "1.0" encoding="UTF-8" standalone="yes"?>
<CPLEXSolution version="1.2">
 <header
   problemName="networks/zoo_114_1916/zoo_114_1916-lower.lp"
   solutionName="incumbent"
   solutionIndex="-1"
   objectiveValue="54"
   solutionTypeValue="3"
   solutionTypeString="primal"
   solutionStatusValue="101"
   solutionStatusString="integer optimal solution"
   solutionMethodString="mip"
   primalFeasible="1"
   dualFeasible="1"
   MIPNodes="0"
   MIPIterations="0"
   writeLevel="3"/>
 <quality
   epInt="1.0000000000000001e-05"
   epRHS="9.9999999999999995e-07"
   maxIntInfeas="0"
   maxPrimalInfeas="0"
   maxX="1"
   maxSlack="1"/>
 <variables>
  <variable name="Y(1,3)" index="2" value="1"/>
  <variable name="Y(2,5)" index="115" value="1"/>
  <variable name="Y(3,6)" index="227" value="1"/>
  <variable name="Y(4,7)" index="339" value="1"/>
  <variable name="Y(5,8)" index="451" value="1"/>
  <variable name="Y(6,9)" index="563" value="1"/>
  <variable name="Y(7,10)" index="675" value="1"/>
  <variable name="Y(8,13)" index="789" value="1"/>
  <variable name="Y(9,14)" index="901" value="1"/>
  <variable name="Y(10,15)" index="1013" value="1"/>
  <variable name="Y(11,16)" index="1125" value="1"/>
  <variable name="Y(12,17)" index="1237" value="1"/>
  <variable name="Y(13,18)" index="1349" value="1"/>
  <variable name="Y(14,21)" index="1463" value="1"/>
  <variable name="Y(15,22)" index="1575" value="1"/>
  <variable name="Y(16,24)" index="1688" value="1"/>
  <variable name="Y(17,26)" index="1801" value="1"/>
  <variable name="Y(18,27)" index="1913" value="1"/>
  <variable name="Y(19,28)" index="2025" value="1"/>
  <variable name="Y(20,29)" index="2137" value="1"/>
  <variable name="Y(21,30)" index="2249" value="1"/>
  <variable name="Y(22,31)" index="2361" value="1"/>
  <variable name="Y(23,32)" index="2473" value="1"/>
  <variable name="Y(24,33)" index="2585" value="1"/>
  <variable name="Y(25,34)" index="2697" value="1"/>
  <variable name="Y(26,35)" index="2809" value="1"/>
  <variable name="Y(27,36)" index="2921" value="1"/>
  <variable name="Y(28,37)" index="3033" value="1"/>
  <variable name="Y(29,40)" index="3147" value="1"/>
  <variable name="Y(30,41)" index="3259" value="1"/>
  <variable name="Y(31,42)" index="3371" value="1"/>
  <variable name="Y(32,43)" index="3483" value="1"/>
  <variable name="Y(33,45)" index="3596" value="1"/>
  <variable name="Y(34,46)" index="3708" value="1"/>
  <variable name="Y(35,48)" index="3821" value="1"/>
  <variable name="Y(36,49)" index="3933" value="1"/>
  <variable name="Y(37,51)" index="4046" value="1"/>
  <variable name="Y(38,52)" index="4158" value="1"/>
  <variable name="Y(39,53)" index="4270" value="1"/>
  <variable name="Y(40,54)" index="4382" value="1"/>
  <variable name="Y(41,56)" index="4495" value="1"/>
  <variable name="Y(42,1)" index="4551" value="1"/>
  <variable name="Y(85,4)" index="9327" value="1"/>
  <variable name="Y(101,25)" index="11124" value="1"/>
  <variable name="Y(114,38)" index="12580" value="1"/>
  <variable name="Y(119,44)" index="13141" value="1"/>
  <variable name="Y(128,55)" index="14151" value="1"/>
  <variable name="Y(219,2)" index="24199" value="1"/>
  <variable name="Y(227,11)" index="25096" value="1"/>
  <variable name="Y(228,12)" index="25208" value="1"/>
  <variable name="Y(235,19)" index="25992" value="1"/>
  <variable name="Y(260,47)" index="28795" value="1"/>
  <variable name="Y(269,57)" index="29804" value="1"/>
  <variable name="Y(1097,50)" index="121705" value="1"/>
  <variable name="X(1,32,1)" index="212676" value="1"/>
  <variable name="X(1,58,42)" index="214633" value="1"/>
  <variable name="X(2,5,42)" index="216549" value="1"/>
  <variable name="X(2,59,219)" index="218642" value="1"/>
  <variable name="X(3,32,84)" index="220423" value="1"/>
  <variable name="X(3,60,1)" index="222256" value="1"/>
  <variable name="X(4,34,130)" index="224301" value="1"/>
  <variable name="X(4,61,85)" index="226172" value="1"/>
  <variable name="X(5,2,219)" index="228222" value="1"/>
  <variable name="X(5,8,5)" index="229924" value="1"/>
  <variable name="X(5,10,48)" index="231883" value="1"/>
  <variable name="X(5,52,42)" index="233793" value="1"/>
  <variable name="X(5,62,2)" index="235669" value="1"/>
  <variable name="X(6,52,218)" index="237801" value="1"/>
  <variable name="X(6,63,3)" index="239502" value="1"/>
  <variable name="X(7,42,161)" index="241576" value="1"/>
  <variable name="X(7,52,270)" index="243601" value="1"/>
  <variable name="X(7,64,4)" index="245251" value="1"/>
  <variable name="X(8,5,297)" index="247460" value="1"/>
  <variable name="X(8,65,5)" index="249084" value="1"/>
  <variable name="X(9,22,298)" index="251293" value="1"/>
  <variable name="X(9,66,6)" index="252917" value="1"/>
  <variable name="X(10,5,300)" index="255127" value="1"/>
  <variable name="X(10,11,227)" index="256970" value="1"/>
  <variable name="X(10,21,6)" index="258665" value="1"/>
  <variable name="X(10,41,321)" index="260896" value="1"/>
  <variable name="X(10,42,31)" index="262522" value="1"/>
  <variable name="X(10,43,74)" index="264481" value="1"/>
  <variable name="X(10,52,298)" index="266621" value="1"/>
  <variable name="X(10,67,7)" index="268246" value="1"/>
  <variable name="X(11,10,380)" index="270535" value="1"/>
  <variable name="X(11,68,227)" index="272298" value="1"/>
  <variable name="X(12,20,403)" index="274390" value="1"/>
  <variable name="X(12,69,228)" index="276131" value="1"/>
  <variable name="X(13,27,427)" index="278246" value="1"/>
  <variable name="X(13,70,8)" index="279743" value="1"/>
  <variable name="X(14,27,8)" index="281659" value="1"/>
  <variable name="X(14,31,53)" index="283620" value="1"/>
  <variable name="X(14,32,42)" index="285525" value="1"/>
  <variable name="X(14,43,6)" index="287405" value="1"/>
  <variable name="X(14,46,13)" index="289328" value="1"/>
  <variable name="X(14,52,2)" index="291233" value="1"/>
  <variable name="X(14,54,40)" index="293187" value="1"/>
  <variable name="X(14,71,9)" index="295072" value="1"/>
  <variable name="X(15,32,483)" index="297462" value="1"/>
  <variable name="X(15,33,24)" index="298919" value="1"/>
  <variable name="X(15,34,485)" index="301296" value="1"/>
  <variable name="X(15,50,1097)" index="303824" value="1"/>
  <variable name="X(15,55,128)" index="304771" value="1"/>
  <variable name="X(15,72,10)" index="306569" value="1"/>
  <variable name="X(16,31,514)" index="308989" value="1"/>
  <variable name="X(16,73,11)" index="310402" value="1"/>
  <variable name="X(17,31,548)" index="312855" value="1"/>
  <variable name="X(17,53,532)" index="314755" value="1"/>
  <variable name="X(17,74,12)" index="316151" value="1"/>
  <variable name="X(18,21,580)" index="318635" value="1"/>
  <variable name="X(18,38,114)" index="320085" value="1"/>
  <variable name="X(18,40,29)" index="321916" value="1"/>
  <variable name="X(18,46,322)" index="324125" value="1"/>
  <variable name="X(18,52,572)" index="326291" value="1"/>
  <variable name="X(18,75,13)" index="327648" value="1"/>
  <variable name="X(19,21,624)" index="330175" value="1"/>
  <variable name="X(19,76,235)" index="331702" value="1"/>
  <variable name="X(20,12,228)" index="333611" value="1"/>
  <variable name="X(20,21,403)" index="335702" value="1"/>
  <variable name="X(21,10,298)" index="337513" value="1"/>
  <variable name="X(21,18,306)" index="339437" value="1"/>
  <variable name="X(21,19,235)" index="341282" value="1"/>
  <variable name="X(21,20,228)" index="343191" value="1"/>
  <variable name="X(21,22,6)" index="344885" value="1"/>
  <variable name="X(21,78,14)" index="346809" value="1"/>
  <variable name="X(22,9,6)" index="348717" value="1"/>
  <variable name="X(22,21,298)" index="350925" value="1"/>
  <variable name="X(22,79,15)" index="352558" value="1"/>
  <variable name="X(23,21,780)" index="355239" value="1"/>
  <variable name="X(24,34,804)" index="357179" value="1"/>
  <variable name="X(24,81,16)" index="358307" value="1"/>
  <variable name="X(25,34,849)" index="361056" value="1"/>
  <variable name="X(25,82,101)" index="362224" value="1"/>
  <variable name="X(26,52,896)" index="364935" value="1"/>
  <variable name="X(26,83,17)" index="365972" value="1"/>
  <variable name="X(27,13,8)" index="367879" value="1"/>
  <variable name="X(27,14,427)" index="370214" value="1"/>
  <variable name="X(27,28,19)" index="371722" value="1"/>
  <variable name="X(27,56,446)" index="374065" value="1"/>
  <variable name="X(27,84,18)" index="375553" value="1"/>
  <variable name="X(28,27,960)" index="378411" value="1"/>
  <variable name="X(28,85,19)" index="379386" value="1"/>
  <variable name="X(29,31,988)" index="382271" value="1"/>
  <variable name="X(29,86,20)" index="383219" value="1"/>
  <variable name="X(30,87,21)" index="385136" value="1"/>
  <variable name="X(31,14,516)" index="387547" value="1"/>
  <variable name="X(31,16,11)" index="388958" value="1"/>
  <variable name="X(31,17,12)" index="390875" value="1"/>
  <variable name="X(31,29,20)" index="392799" value="1"/>
  <variable name="X(31,30,21)" index="394716" value="1"/>
  <variable name="X(31,32,514)" index="397125" value="1"/>
  <variable name="X(31,88,22)" index="398549" value="1"/>
  <variable name="X(32,1,42)" index="400485" value="1"/>
  <variable name="X(32,3,1)" index="402360" value="1"/>
  <variable name="X(32,14,2)" index="404277" value="1"/>
  <variable name="X(32,15,10)" index="406201" value="1"/>
  <variable name="X(32,31,11)" index="408118" value="1"/>
  <variable name="X(32,34,16)" index="410039" value="1"/>
  <variable name="X(32,49,36)" index="411975" value="1"/>
  <variable name="X(32,53,39)" index="413894" value="1"/>
  <variable name="X(32,89,23)" index="415794" value="1"/>
  <variable name="X(33,15,1105)" index="418792" value="1"/>
  <variable name="X(33,90,24)" index="419627" value="1"/>
  <variable name="X(34,4,85)" index="421604" value="1"/>
  <variable name="X(34,15,52)" index="423487" value="1"/>
  <variable name="X(34,24,16)" index="425367" value="1"/>
  <variable name="X(34,25,101)" index="427368" value="1"/>
  <variable name="X(34,32,130)" index="429313" value="1"/>
  <variable name="X(34,35,26)" index="431125" value="1"/>
  <variable name="X(34,36,27)" index="433042" value="1"/>
  <variable name="X(34,37,28)" index="434959" value="1"/>
  <variable name="X(34,48,35)" index="436882" value="1"/>
  <variable name="X(34,52,132)" index="438895" value="1"/>
  <variable name="X(34,53,81)" index="440760" value="1"/>
  <variable name="X(34,91,25)" index="442620" value="1"/>
  <variable name="X(35,34,1192)" index="445703" value="1"/>
  <variable name="X(35,53,1205)" index="447632" value="1"/>
  <variable name="X(35,92,26)" index="448369" value="1"/>
  <variable name="X(36,34,1238)" index="451497" value="1"/>
  <variable name="X(36,56,173)" index="452348" value="1"/>
  <variable name="X(36,93,27)" index="454118" value="1"/>
  <variable name="X(37,34,1242)" index="457249" value="1"/>
  <variable name="X(37,51,37)" index="457960" value="1"/>
  <variable name="X(37,56,1250)" index="461089" value="1"/>
  <variable name="X(37,94,28)" index="461783" value="1"/>
  <variable name="X(38,18,1283)" index="464954" value="1"/>
  <variable name="X(38,95,114)" index="465701" value="1"/>
  <variable name="X(39,46,1327)" index="468830" value="1"/>
  <variable name="X(40,18,1351)" index="470770" value="1"/>
  <variable name="X(40,97,29)" index="471364" value="1"/>
  <variable name="X(41,10,1361)" index="474612" value="1"/>
  <variable name="X(41,52,1358)" index="476525" value="1"/>
  <variable name="X(41,98,30)" index="477113" value="1"/>
  <variable name="X(42,7,334)" index="479333" value="1"/>
  <variable name="X(42,10,274)" index="481189" value="1"/>
  <variable name="X(42,99,31)" index="482862" value="1"/>
  <variable name="X(43,10,6)" index="484753" value="1"/>
  <variable name="X(43,14,1446)" index="488109" value="1"/>
  <variable name="X(43,57,269)" index="488848" value="1"/>
  <variable name="X(43,100,32)" index="490527" value="1"/>
  <variable name="X(44,46,1491)" index="493902" value="1"/>
  <variable name="X(44,101,119)" index="494446" value="1"/>
  <variable name="X(45,46,1505)" index="497748" value="1"/>
  <variable name="X(45,102,33)" index="498192" value="1"/>
  <variable name="X(46,14,1327)" index="501402" value="1"/>
  <variable name="X(46,18,13)" index="502004" value="1"/>
  <variable name="X(46,44,119)" index="504026" value="1"/>
  <variable name="X(46,45,33)" index="505856" value="1"/>
  <variable name="X(46,47,260)" index="507999" value="1"/>
  <variable name="X(46,103,34)" index="509689" value="1"/>
  <variable name="X(47,46,1554)" index="513125" value="1"/>
  <variable name="X(47,104,260)" index="513747" value="1"/>
  <variable name="X(48,34,1579)" index="516982" value="1"/>
  <variable name="X(48,105,35)" index="517354" value="1"/>
  <variable name="X(49,32,1610)" index="520845" value="1"/>
  <variable name="X(49,106,36)" index="521187" value="1"/>
  <variable name="X(50,15,1661)" index="524728" value="1"/>
  <variable name="X(50,107,1097)" index="526080" value="1"/>
  <variable name="X(51,37,1684)" index="528583" value="1"/>
  <variable name="X(51,108,37)" index="528852" value="1"/>
  <variable name="X(52,5,2)" index="530733" value="1"/>
  <variable name="X(52,6,3)" index="532650" value="1"/>
  <variable name="X(52,7,4)" index="534567" value="1"/>
  <variable name="X(52,10,136)" index="536615" value="1"/>
  <variable name="X(52,14,42)" index="538437" value="1"/>
  <variable name="X(52,18,55)" index="540366" value="1"/>
  <variable name="X(52,26,17)" index="542244" value="1"/>
  <variable name="X(52,34,52)" index="544195" value="1"/>
  <variable name="X(52,41,30)" index="546089" value="1"/>
  <variable name="X(52,56,41)" index="548016" value="1"/>
  <variable name="X(52,109,38)" index="549929" value="1"/>
  <variable name="X(53,17,142)" index="551949" value="1"/>
  <variable name="X(53,32,542)" index="554265" value="1"/>
  <variable name="X(53,34,544)" index="556183" value="1"/>
  <variable name="X(53,35,532)" index="558087" value="1"/>
  <variable name="X(53,110,39)" index="559510" value="1"/>
  <variable name="X(54,14,1814)" index="563201" value="1"/>
  <variable name="X(54,111,40)" index="563343" value="1"/>
  <variable name="X(55,15,1829)" index="567048" value="1"/>
  <variable name="X(55,112,128)" index="567263" value="1"/>
  <variable name="X(56,27,1250)" index="570301" value="1"/>
  <variable name="X(56,36,446)" index="571413" value="1"/>
  <variable name="X(56,37,447)" index="573330" value="1"/>
  <variable name="X(56,52,1845)" index="576644" value="1"/>
  <variable name="X(56,113,41)" index="576756" value="1"/>
  <variable name="X(57,43,1893)" index="580524" value="1"/>
  <variable name="X(57,114,269)" index="580816" value="1"/>
 </variables>
</CPLEXSolution>
